Welcome to the CBC MILP Solver 
Version: 2.10.7 
Build Date: Feb 14 2022 

command line - cbc inputs/new_tr/order/triang6_2_tiers_input.lp sec 1800 solve solu solutions/new_tr/triang6_2_tiers_input.lp (default strategy 1)
seconds was changed from 1e+100 to 1800
Continuous objective value is 268.322 - 0.01 seconds
Cgl0002I 269 variables fixed
Cgl0003I 0 fixed, 1 tightened bounds, 199 strengthened rows, 0 substitutions
Cgl0003I 0 fixed, 0 tightened bounds, 20 strengthened rows, 0 substitutions
Cgl0003I 0 fixed, 0 tightened bounds, 8 strengthened rows, 0 substitutions
Cgl0003I 0 fixed, 0 tightened bounds, 2 strengthened rows, 0 substitutions
Cgl0004I processed model has 774 rows, 276 columns (276 integer (255 of which binary)) and 2531 elements
Cutoff increment increased from 1e-05 to 0.9999
Cbc0045I 1 integer variables out of 276 objects (276 integer) have cost of 1 - high priority
Cbc0045I branch on satisfied Y create fake objective Y random cost Y
Cbc0038I Initial state - 142 integers unsatisfied sum - 29.211
Cbc0038I Pass   1: suminf.   19.63642 (91) obj. 314.479 iterations 205
Cbc0038I Pass   2: suminf.   18.72323 (86) obj. 316.218 iterations 27
Cbc0038I Pass   3: suminf.   10.60317 (70) obj. 353.029 iterations 150
Cbc0038I Pass   4: suminf.    3.72946 (42) obj. 352.157 iterations 52
Cbc0038I Pass   5: suminf.    3.72946 (42) obj. 352.157 iterations 2
Cbc0038I Pass   6: suminf.    4.00633 (34) obj. 373.636 iterations 165
Cbc0038I Pass   7: suminf.    2.93141 (19) obj. 389.239 iterations 56
Cbc0038I Pass   8: suminf.    0.00000 (0) obj. 374 iterations 35
Cbc0038I Solution found of 374
Cbc0038I Cleaned solution of 374
Cbc0038I Before mini branch and bound, 107 integers at bound fixed and 0 continuous
Cbc0038I Full problem 774 rows 276 columns, reduced to 549 rows 169 columns - 8 fixed gives 443, 136 - still too large
Cbc0038I Mini branch and bound did not improve solution (0.09 seconds)
Cbc0038I Round again with cutoff of 362.532
Cbc0038I Pass   9: suminf.   19.63642 (91) obj. 314.479 iterations 0
Cbc0038I Pass  10: suminf.   18.72323 (86) obj. 316.218 iterations 30
Cbc0038I Pass  11: suminf.   14.94029 (81) obj. 353.643 iterations 114
Cbc0038I Pass  12: suminf.   12.30868 (75) obj. 353.807 iterations 64
Cbc0038I Pass  13: suminf.    7.20654 (55) obj. 353.985 iterations 56
Cbc0038I Pass  14: suminf.    5.04008 (45) obj. 353.996 iterations 32
Cbc0038I Pass  15: suminf.    1.89685 (22) obj. 362.532 iterations 89
Cbc0038I Pass  16: suminf.    0.00000 (0) obj. 305 iterations 68
Cbc0038I Solution found of 305
Cbc0038I Cleaned solution of 305
Cbc0038I Before mini branch and bound, 107 integers at bound fixed and 0 continuous
Cbc0038I Mini branch and bound did not improve solution (0.12 seconds)
Cbc0038I Round again with cutoff of 296.864
Cbc0038I Reduced cost fixing fixed 1 variables on major pass 3
Cbc0038I Pass  17: suminf.   19.21706 (98) obj. 296 iterations 30
Cbc0038I Pass  18: suminf.   18.00783 (93) obj. 296.864 iterations 41
Cbc0038I Pass  19: suminf.   16.63365 (89) obj. 296.864 iterations 27
Cbc0038I Pass  20: suminf.   16.64223 (89) obj. 296.864 iterations 5
Cbc0038I Pass  21: suminf.    8.65858 (63) obj. 296.864 iterations 90
Cbc0038I Pass  22: suminf.    8.72966 (63) obj. 296.864 iterations 6
Cbc0038I Pass  23: suminf.    5.61995 (51) obj. 296.864 iterations 91
Cbc0038I Pass  24: suminf.    5.14272 (50) obj. 296.864 iterations 9
Cbc0038I Pass  25: suminf.    2.71480 (15) obj. 296.864 iterations 66
Cbc0038I Pass  26: suminf.    1.35465 (37) obj. 296.864 iterations 33
Cbc0038I Pass  27: suminf.    5.82749 (62) obj. 296.864 iterations 68
Cbc0038I Pass  28: suminf.    5.54489 (58) obj. 296.864 iterations 19
Cbc0038I Pass  29: suminf.    3.38647 (41) obj. 296.864 iterations 87
Cbc0038I Pass  30: suminf.    2.69403 (33) obj. 296.864 iterations 13
Cbc0038I Pass  31: suminf.    4.69025 (26) obj. 296.864 iterations 59
Cbc0038I Pass  32: suminf.    2.59239 (27) obj. 296.864 iterations 12
Cbc0038I Pass  33: suminf.    1.83803 (24) obj. 296.864 iterations 13
Cbc0038I Pass  34: suminf.    3.42390 (34) obj. 296.864 iterations 73
Cbc0038I Pass  35: suminf.    1.51146 (27) obj. 296.864 iterations 29
Cbc0038I Pass  36: suminf.   10.03968 (48) obj. 296.864 iterations 69
Cbc0038I Pass  37: suminf.    6.54550 (47) obj. 296.864 iterations 31
Cbc0038I Pass  38: suminf.    6.68328 (42) obj. 296.864 iterations 59
Cbc0038I Pass  39: suminf.    6.68328 (42) obj. 296.864 iterations 7
Cbc0038I Pass  40: suminf.    6.24348 (40) obj. 296.864 iterations 69
Cbc0038I Pass  41: suminf.    5.08861 (37) obj. 296.864 iterations 5
Cbc0038I Pass  42: suminf.    6.30295 (37) obj. 296.864 iterations 49
Cbc0038I Pass  43: suminf.    4.53214 (33) obj. 296.864 iterations 16
Cbc0038I Pass  44: suminf.    3.80579 (27) obj. 296.864 iterations 14
Cbc0038I Pass  45: suminf.    6.65720 (28) obj. 296.864 iterations 61
Cbc0038I Pass  46: suminf.    4.64297 (28) obj. 296.864 iterations 32
Cbc0038I Pass  47: suminf.    2.86552 (21) obj. 296.864 iterations 31
Cbc0038I Pass  48: suminf.    2.74769 (19) obj. 296.864 iterations 4
Cbc0038I Pass  49: suminf.    4.06323 (23) obj. 296.864 iterations 35
Cbc0038I Pass  50: suminf.    2.63171 (19) obj. 296.864 iterations 9
Cbc0038I Pass  51: suminf.    3.16820 (19) obj. 296.864 iterations 53
Cbc0038I Pass  52: suminf.    2.81494 (20) obj. 296.864 iterations 8
Cbc0038I Pass  53: suminf.    3.11885 (27) obj. 296.864 iterations 45
Cbc0038I Pass  54: suminf.    1.22772 (21) obj. 296.864 iterations 4
Cbc0038I Pass  55: suminf.    4.10284 (38) obj. 296.864 iterations 45
Cbc0038I Pass  56: suminf.    1.51364 (24) obj. 296.864 iterations 22
Cbc0038I Pass  57: suminf.    3.85321 (30) obj. 296.864 iterations 48
Cbc0038I Pass  58: suminf.    2.95888 (28) obj. 296.864 iterations 33
Cbc0038I Pass  59: suminf.    2.23694 (27) obj. 296.864 iterations 55
Cbc0038I Pass  60: suminf.    2.08642 (27) obj. 296.864 iterations 4
Cbc0038I Pass  61: suminf.    3.63297 (26) obj. 296.864 iterations 35
Cbc0038I Pass  62: suminf.    2.35007 (30) obj. 296.864 iterations 30
Cbc0038I Pass  63: suminf.    6.35637 (49) obj. 296.864 iterations 113
Cbc0038I Pass  64: suminf.    6.56990 (53) obj. 296.864 iterations 11
Cbc0038I Pass  65: suminf.    7.59292 (48) obj. 296.864 iterations 97
Cbc0038I Pass  66: suminf.    5.64630 (47) obj. 296.864 iterations 11
Cbc0038I Pass  67: suminf.    3.90533 (28) obj. 296.864 iterations 57
Cbc0038I Pass  68: suminf.    3.90533 (28) obj. 296.864 iterations 7
Cbc0038I Pass  69: suminf.    5.70664 (17) obj. 296.864 iterations 96
Cbc0038I Pass  70: suminf.    4.70623 (23) obj. 296.864 iterations 10
Cbc0038I Pass  71: suminf.    2.13506 (32) obj. 296.864 iterations 53
Cbc0038I Pass  72: suminf.    2.08190 (31) obj. 296.864 iterations 10
Cbc0038I Pass  73: suminf.    4.11863 (33) obj. 296.864 iterations 60
Cbc0038I Pass  74: suminf.    3.61414 (35) obj. 296.864 iterations 22
Cbc0038I Pass  75: suminf.    3.48647 (27) obj. 296.864 iterations 9
Cbc0038I Pass  76: suminf.    2.88933 (28) obj. 296.864 iterations 54
Cbc0038I Pass  77: suminf.    3.06479 (21) obj. 296.864 iterations 21
Cbc0038I Pass  78: suminf.    2.39408 (27) obj. 296.864 iterations 47
Cbc0038I Pass  79: suminf.    2.38077 (27) obj. 296.864 iterations 4
Cbc0038I Pass  80: suminf.    0.13562 (1) obj. 296.864 iterations 21
Cbc0038I Solution found of 296.864
Cbc0038I Branch and bound needed to clear up 1 general integers
Cbc0038I Full problem 775 rows 276 columns, reduced to 0 rows 0 columns
Cbc0038I Cleaned solution of 287
Cbc0038I Before mini branch and bound, 77 integers at bound fixed and 0 continuous
Cbc0038I Full problem 774 rows 276 columns, reduced to 611 rows 199 columns - 49 fixed gives 349, 98 - ok now
Cbc0038I Full problem 774 rows 276 columns, reduced to 137 rows 51 columns
Cbc0038I Mini branch and bound did not improve solution (0.26 seconds)
Cbc0038I Round again with cutoff of 280.697
Cbc0038I Reduced cost fixing fixed 6 variables on major pass 4
Cbc0038I Pass  81: suminf.   18.28382 (97) obj. 280.697 iterations 26
Cbc0038I Pass  82: suminf.   17.74353 (90) obj. 280.697 iterations 35
Cbc0038I Pass  83: suminf.   17.80988 (93) obj. 280.697 iterations 12
Cbc0038I Pass  84: suminf.   13.95240 (82) obj. 280.697 iterations 48
Cbc0038I Pass  85: suminf.   13.91127 (84) obj. 280.697 iterations 12
Cbc0038I Pass  86: suminf.   11.56248 (71) obj. 280.697 iterations 56
Cbc0038I Pass  87: suminf.   10.72281 (72) obj. 280.697 iterations 12
Cbc0038I Pass  88: suminf.    9.15755 (66) obj. 280.697 iterations 22
Cbc0038I Pass  89: suminf.    6.09804 (72) obj. 280.697 iterations 114
Cbc0038I Pass  90: suminf.    5.62435 (63) obj. 280.697 iterations 15
Cbc0038I Pass  91: suminf.    5.88347 (51) obj. 280.697 iterations 98
Cbc0038I Pass  92: suminf.    5.21261 (48) obj. 280.697 iterations 9
Cbc0038I Pass  93: suminf.    9.77216 (51) obj. 280.697 iterations 43
Cbc0038I Pass  94: suminf.    8.98063 (51) obj. 280.697 iterations 7
Cbc0038I Pass  95: suminf.    4.96959 (53) obj. 280.697 iterations 56
Cbc0038I Pass  96: suminf.    4.28790 (56) obj. 280.697 iterations 11
Cbc0038I Pass  97: suminf.    9.97946 (62) obj. 280.697 iterations 105
Cbc0038I Pass  98: suminf.    6.57656 (56) obj. 280.697 iterations 28
Cbc0038I Pass  99: suminf.    7.34403 (37) obj. 280.697 iterations 59
Cbc0038I Pass 100: suminf.    5.09239 (36) obj. 280.697 iterations 14
Cbc0038I Pass 101: suminf.    3.79306 (29) obj. 280.697 iterations 14
Cbc0038I Pass 102: suminf.    8.52065 (49) obj. 280.697 iterations 109
Cbc0038I Pass 103: suminf.    6.92685 (51) obj. 280.697 iterations 39
Cbc0038I Pass 104: suminf.    1.52985 (33) obj. 280.697 iterations 39
Cbc0038I Pass 105: suminf.    1.49281 (41) obj. 280.697 iterations 13
Cbc0038I Pass 106: suminf.   11.50977 (72) obj. 280.697 iterations 83
Cbc0038I Pass 107: suminf.    5.09873 (31) obj. 280.697 iterations 77
Cbc0038I Pass 108: suminf.    2.63380 (19) obj. 280.697 iterations 68
Cbc0038I Pass 109: suminf.    1.14036 (17) obj. 280.697 iterations 21
Cbc0038I Pass 110: suminf.    5.38176 (50) obj. 280.697 iterations 81
Cbc0038I Pass 111: suminf.    5.38176 (50) obj. 280.697 iterations 3
Cbc0038I Pass 112: suminf.    5.42114 (41) obj. 280.697 iterations 38
Cbc0038I Pass 113: suminf.   13.05575 (101) obj. 280.697 iterations 115
Cbc0038I Pass 114: suminf.    8.71046 (77) obj. 280.697 iterations 86
Cbc0038I Pass 115: suminf.    2.72682 (66) obj. 280.697 iterations 83
Cbc0038I Pass 116: suminf.    2.46887 (55) obj. 280.697 iterations 22
Cbc0038I Pass 117: suminf.    7.09995 (43) obj. 280.697 iterations 57
Cbc0038I Pass 118: suminf.    4.92740 (34) obj. 280.697 iterations 19
Cbc0038I Pass 119: suminf.    5.79479 (24) obj. 280.697 iterations 117
Cbc0038I Pass 120: suminf.    1.13446 (18) obj. 280.697 iterations 28
Cbc0038I Pass 121: suminf.    2.75620 (31) obj. 280.697 iterations 38
Cbc0038I Pass 122: suminf.    2.62735 (24) obj. 280.697 iterations 26
Cbc0038I Pass 123: suminf.    3.92551 (26) obj. 280.697 iterations 84
Cbc0038I Pass 124: suminf.    1.13446 (18) obj. 280.697 iterations 10
Cbc0038I Pass 125: suminf.    1.13446 (18) obj. 280.697 iterations 0
Cbc0038I Pass 126: suminf.    2.79060 (29) obj. 280.697 iterations 41
Cbc0038I Pass 127: suminf.    2.66174 (22) obj. 280.697 iterations 27
Cbc0038I Pass 128: suminf.    3.92551 (26) obj. 280.697 iterations 34
Cbc0038I Pass 129: suminf.    1.13446 (18) obj. 280.697 iterations 12
Cbc0038I Pass 130: suminf.    1.13446 (18) obj. 280.697 iterations 0
Cbc0038I Pass 131: suminf.    2.79060 (29) obj. 280.697 iterations 38
Cbc0038I Pass 132: suminf.    2.66174 (22) obj. 280.697 iterations 24
Cbc0038I Pass 133: suminf.    3.92551 (26) obj. 280.697 iterations 46
Cbc0038I Pass 134: suminf.    1.13446 (18) obj. 280.697 iterations 15
Cbc0038I Pass 135: suminf.    1.13446 (18) obj. 280.697 iterations 4
Cbc0038I Pass 136: suminf.    2.79060 (29) obj. 280.697 iterations 39
Cbc0038I Pass 137: suminf.    2.66174 (22) obj. 280.697 iterations 30
Cbc0038I Pass 138: suminf.    3.92551 (26) obj. 280.697 iterations 50
Cbc0038I Pass 139: suminf.    1.13446 (18) obj. 280.697 iterations 17
Cbc0038I Pass 140: suminf.    1.13446 (18) obj. 280.697 iterations 0
Cbc0038I Pass 141: suminf.    2.79060 (29) obj. 280.697 iterations 35
Cbc0038I Pass 142: suminf.    2.66174 (22) obj. 280.697 iterations 20
Cbc0038I Pass 143: suminf.    3.92551 (26) obj. 280.697 iterations 61
Cbc0038I Pass 144: suminf.    1.13446 (18) obj. 280.697 iterations 13
Cbc0038I Pass 145: suminf.    1.13446 (18) obj. 280.697 iterations 0
Cbc0038I Pass 146: suminf.    2.79060 (29) obj. 280.697 iterations 28
Cbc0038I Pass 147: suminf.    2.66174 (22) obj. 280.697 iterations 22
Cbc0038I Pass 148: suminf.    3.92551 (26) obj. 280.697 iterations 89
Cbc0038I Pass 149: suminf.    1.13446 (18) obj. 280.697 iterations 9
Cbc0038I Pass 150: suminf.    1.13446 (18) obj. 280.697 iterations 0
Cbc0038I Pass 151: suminf.    2.79060 (29) obj. 280.697 iterations 30
Cbc0038I Pass 152: suminf.    2.66174 (22) obj. 280.697 iterations 21
Cbc0038I Pass 153: suminf.    3.92551 (26) obj. 280.697 iterations 46
Cbc0038I Pass 154: suminf.    1.13446 (18) obj. 280.697 iterations 9
Cbc0038I Pass 155: suminf.    1.13446 (18) obj. 280.697 iterations 0
Cbc0038I Pass 156: suminf.    2.79060 (29) obj. 280.697 iterations 38
Cbc0038I Pass 157: suminf.    2.66174 (22) obj. 280.697 iterations 14
Cbc0038I Pass 158: suminf.    3.92551 (26) obj. 280.697 iterations 43
Cbc0038I Pass 159: suminf.    1.13446 (18) obj. 280.697 iterations 23
Cbc0038I Pass 160: suminf.    1.13446 (18) obj. 280.697 iterations 0
Cbc0038I Pass 161: suminf.    2.79060 (29) obj. 280.697 iterations 36
Cbc0038I Pass 162: suminf.    2.66174 (22) obj. 280.697 iterations 22
Cbc0038I Pass 163: suminf.    3.92551 (26) obj. 280.697 iterations 52
Cbc0038I Pass 164: suminf.    1.13446 (18) obj. 280.697 iterations 13
Cbc0038I Pass 165: suminf.    1.13446 (18) obj. 280.697 iterations 0
Cbc0038I Pass 166: suminf.    2.79060 (29) obj. 280.697 iterations 43
Cbc0038I Pass 167: suminf.    2.66174 (22) obj. 280.697 iterations 24
Cbc0038I Pass 168: suminf.    3.92551 (26) obj. 280.697 iterations 97
Cbc0038I Pass 169: suminf.    1.13446 (18) obj. 280.697 iterations 10
Cbc0038I Pass 170: suminf.    1.13446 (18) obj. 280.697 iterations 0
Cbc0038I Pass 171: suminf.    2.79060 (29) obj. 280.697 iterations 36
Cbc0038I Pass 172: suminf.    2.66174 (22) obj. 280.697 iterations 26
Cbc0038I Pass 173: suminf.    3.92551 (26) obj. 280.697 iterations 59
Cbc0038I Pass 174: suminf.    1.13446 (18) obj. 280.697 iterations 15
Cbc0038I Pass 175: suminf.    1.13446 (18) obj. 280.697 iterations 5
Cbc0038I Pass 176: suminf.    2.70179 (23) obj. 280.697 iterations 32
Cbc0038I Pass 177: suminf.    2.66174 (22) obj. 280.697 iterations 9
Cbc0038I Pass 178: suminf.    3.92551 (26) obj. 280.697 iterations 53
Cbc0038I Pass 179: suminf.    1.13446 (18) obj. 280.697 iterations 15
Cbc0038I Pass 180: suminf.   16.93412 (76) obj. 280.697 iterations 146
Cbc0038I No solution found this major pass
Cbc0038I Before mini branch and bound, 49 integers at bound fixed and 0 continuous
Cbc0038I Full problem 774 rows 276 columns, reduced to 670 rows 227 columns - 56 fixed gives 362, 105 - ok now
Cbc0038I Full problem 774 rows 276 columns, reduced to 151 rows 56 columns
Cbc0038I Mini branch and bound did not improve solution (0.45 seconds)
Cbc0038I After 0.45 seconds - Feasibility pump exiting with objective of 287 - took 0.39 seconds
Cbc0012I Integer solution of 287 found by feasibility pump after 0 iterations and 0 nodes (0.45 seconds)
Cbc0038I Full problem 774 rows 276 columns, reduced to 521 rows 154 columns - 42 fixed gives 139, 45 - ok now
Cbc0038I Full problem 774 rows 276 columns, reduced to 50 rows 17 columns
Cbc0031I 36 added rows had average density of 61.027778
Cbc0013I At root node, 36 cuts changed objective from 268.3215 to 284 in 10 passes
Cbc0014I Cut generator 0 (Probing) - 195 row cuts average 2.8 elements, 25 column cuts (25 active)  in 0.025 seconds - new frequency is 1
Cbc0014I Cut generator 1 (Gomory) - 1 row cuts average 4.0 elements, 0 column cuts (0 active)  in 0.018 seconds - new frequency is -100
Cbc0014I Cut generator 2 (Knapsack) - 15 row cuts average 4.6 elements, 0 column cuts (0 active)  in 0.003 seconds - new frequency is 1
Cbc0014I Cut generator 3 (Clique) - 0 row cuts average 0.0 elements, 0 column cuts (0 active)  in 0.001 seconds - new frequency is -100
Cbc0014I Cut generator 4 (MixedIntegerRounding2) - 0 row cuts average 0.0 elements, 0 column cuts (0 active)  in 0.004 seconds - new frequency is -100
Cbc0014I Cut generator 5 (FlowCover) - 0 row cuts average 0.0 elements, 0 column cuts (0 active)  in 0.005 seconds - new frequency is -100
Cbc0014I Cut generator 6 (TwoMirCuts) - 346 row cuts average 122.6 elements, 0 column cuts (0 active)  in 0.077 seconds - new frequency is 1
Cbc0014I Cut generator 7 (ZeroHalf) - 1 row cuts average 10.0 elements, 0 column cuts (0 active)  in 0.002 seconds - new frequency is -100
Cbc0010I After 0 nodes, 1 on tree, 287 best solution, best possible 284 (0.78 seconds)
Cbc0012I Integer solution of 284 found by DiveCoefficient after 2832 iterations and 6 nodes (1.25 seconds)
Cbc0001I Search completed - best objective 284, took 2833 iterations and 6 nodes (1.25 seconds)
Cbc0032I Strong branching done 212 times (7750 iterations), fathomed 0 nodes and fixed 2 variables
Cbc0035I Maximum depth 5, 4 variables fixed on reduced cost
Cuts at root node changed objective from 268.322 to 284
Probing was tried 21 times and created 394 cuts of which 0 were active after adding rounds of cuts (0.034 seconds)
Gomory was tried 10 times and created 1 cuts of which 0 were active after adding rounds of cuts (0.018 seconds)
Knapsack was tried 21 times and created 18 cuts of which 0 were active after adding rounds of cuts (0.006 seconds)
Clique was tried 10 times and created 0 cuts of which 0 were active after adding rounds of cuts (0.001 seconds)
MixedIntegerRounding2 was tried 10 times and created 0 cuts of which 0 were active after adding rounds of cuts (0.004 seconds)
FlowCover was tried 10 times and created 0 cuts of which 0 were active after adding rounds of cuts (0.005 seconds)
TwoMirCuts was tried 21 times and created 453 cuts of which 0 were active after adding rounds of cuts (0.092 seconds)
ZeroHalf was tried 1 times and created 1 cuts of which 0 were active after adding rounds of cuts (0.002 seconds)
ImplicationCuts was tried 11 times and created 28 cuts of which 0 were active after adding rounds of cuts (0.001 seconds)

Result - Optimal solution found

Objective value:                284.00000000
Enumerated nodes:               6
Total iterations:               2833
Time (CPU seconds):             1.26
Time (Wallclock seconds):       1.28

Total time (CPU seconds):       1.27   (Wallclock seconds):       1.29

